Rhodium silicide (1/1)
1.0
        4.6849999428         0.0000000000         0.0000000000
        0.0000000000         4.6849999428         0.0000000000
        0.0000000000         0.0000000000         4.6849999428
   Rh   Si
    4    4
Direct
     0.143999989         0.143999989         0.143999989
     0.356000011         0.855999960         0.643999989
     0.855999960         0.643999989         0.356000011
     0.643999989         0.356000011         0.855999960
     0.839999961         0.839999961         0.839999961
     0.660000039         0.160000026         0.339999910
     0.160000026         0.339999910         0.660000039
     0.339999910         0.660000039         0.160000026
